p cnf 27 68
a 1 5 0
e 2 3 4 6 7 8 9 10 11 12 13 14 15 16 17 18 19 20 21 22 23 24 25 26 27 0
-3 -1 0
-3 2 0
1 -2 3 0
5 -3 0
5 4 0
3 -4 -5 0
-8 -6 0
-8 -7 0
6 7 8 0
-10 -8 0
-10 9 0
8 -9 10 0
-9 2 -11 0
9 -2 -11 0
-9 -2 11 0
9 2 11 0
12 -10 0
12 11 0
10 -11 -12 0
-13 2 -14 0
13 -2 -14 0
-13 -2 14 0
13 2 14 0
-15 14 0
-15 8 0
-14 -8 15 0
-16 -12 0
-16 15 0
12 -15 16 0
-17 -5 0
-17 -16 0
5 16 17 0
18 7 0
18 9 0
-7 -9 -18 0
19 -17 0
19 18 0
17 -18 -19 0
21 -7 0
21 -20 0
7 20 -21 0
22 -20 0
22 -13 0
20 13 -22 0
-23 -21 0
-23 -22 0
21 22 23 0
13 2 -24 0
-13 -2 -24 0
13 -2 24 0
-13 2 24 0
25 -13 0
25 -24 0
13 24 -25 0
-23 -25 -26 0
23 25 -26 0
-23 25 26 0
23 -25 26 0
27 19 0
27 -26 0
-19 26 -27 0
13 5 -24 0
26 -16 -19 -6 0
3 6 -16 -24 0
-11 24 -27 -14 21 2 0
25 -8 -2 7 0
-10 -20 -13 -16 0
27 0
